<instance format="XCSP3" type="CSP">
  <variables>
    <array id="x" size="[3][3]"> 1..3 </array>
  </variables>
  <constraints>
    <group>  
      <allDifferent> %... </allDifferent>
      <args> x[0][] </args>  
      <args> x[1][] </args>  
      <args> x[2][] </args>
      <args> x[][0] </args>
      <args> x[][1] </args>
      <args> x[][2] </args>
    </group>
  </constraints>
</instance>
